; benchmark generated from python API
(set-info :status unknown)
(declare-datatypes ((RealState 0)) (((RMk1 (rval1 Real)) (RMk2 (rval2 Real)))))
 (assert
 (forall ((|v11:0| Real) )(forall ((|v10:1| Real) )(forall ((|v9:2| Real) )(forall ((|v8:3| Real) )(exists ((|v7:4_st| RealState) (val!3440 Real) )(exists ((|v6:5_st| RealState) (val!3441 Real) )(exists ((|v5:6_st| RealState) (val!3442 Real) )(exists ((|v4:7_st| RealState) (val!3443 Real) )(forall ((|v3:8| Real) )(forall ((|v2:9| Real) )(forall ((|v1:10| Real) )(forall ((|v0:11| Real) )(let ((?x65 (- 14.0)))
 (let ((?x1778 (+ (+ (+ (* 3.0 |v9:2|) (* (- 11.0) |v0:11|)) (* (- 18.0) |v10:1|)) (* 12.0 |v8:3|))))
 (let ((?x296 (* 12.0 |v9:2|)))
 (let ((?x2710 (* 13.0 |v10:1|)))
 (let ((?x36 (+ (+ (+ (* 4.0 (rval2 |v7:4_st|)) (* (- 7.0) (rval2 |v6:5_st|))) ?x2710) ?x296)))
 (let ((?x2366 (+ (+ (+ (* 5.0 (rval2 |v4:7_st|)) (* 17.0 |v1:10|)) (* 4.0 |v8:3|)) (* (- 19.0) |v8:3|))))
 (let ((?x2172 (- 10.0)))
 (let ((?x2391 (* 6.0 |v3:8|)))
 (let (($x52 (<= (+ (+ (+ (rval2 |v6:5_st|) (* 20.0 |v2:9|)) (* (- 8.0) |v11:0|)) ?x2391) ?x2172)))
 (let (($x180 (and (or $x52 (<= ?x2366 4.0)) (or (<= ?x36 15.0) (<= ?x1778 ?x65)))))
 (let ((?x1575 (- 3.0)))
 (let ((?x2444 (rval2 |v7:4_st|)))
 (let ((?x814 (* 3.0 ?x2444)))
 (let ((?x2840 (+ (+ (+ (* 19.0 |v10:1|) (* ?x65 (rval2 |v4:7_st|))) ?x814) (* (- 16.0) |v11:0|))))
 (let ((?x666 (- 4.0)))
 (let ((?x1403 (* 20.0 |v11:0|)))
 (let (($x1595 (<= (+ (+ (+ (* 20.0 |v3:8|) (* 16.0 |v9:2|)) (* 15.0 |v0:11|)) ?x1403) ?x666)))
 (let ((?x564 (+ (+ (+ (* ?x1575 |v3:8|) (* 4.0 (rval2 |v4:7_st|))) (* (- 5.0) |v9:2|)) |v10:1|)))
 (let ((?x559 (- 2.0)))
 (let ((?x1156 (* 8.0 ?x2444)))
 (let ((?x2921 (+ (+ (+ (* (- 9.0) |v10:1|) (* 12.0 (rval2 |v4:7_st|))) (* 0.0 |v8:3|)) ?x1156)))
 (let (($x448 (and (or (<= ?x2921 ?x559) (<= ?x564 14.0)) (and $x1595 (<= ?x2840 ?x1575)))))
 (let ((?x2214 (- 17.0)))
 (let ((?x2399 (+ (+ (+ (* ?x2172 |v0:11|) (* (- 7.0) |v8:3|)) (* 19.0 (rval2 |v5:6_st|))) (* ?x65 ?x2444))))
 (let ((?x2373 (- 18.0)))
 (let ((?x801 (* ?x2373 |v10:1|)))
 (let ((?x2335 (+ (+ (+ (* 16.0 |v3:8|) (* (- 19.0) (rval2 |v4:7_st|))) (* 10.0 |v2:9|)) ?x801)))
 (let ((?x1392 (* 20.0 |v3:8|)))
 (let ((?x2607 (+ (+ (+ (* ?x559 |v1:10|) (* ?x2214 ?x2444)) (* 17.0 (rval2 |v4:7_st|))) ?x1392)))
 (let ((?x1369 (rval2 |v6:5_st|)))
 (let ((?x2675 (* 4.0 ?x1369)))
 (let ((?x1377 (+ (+ (+ (* 14.0 ?x1369) (* ?x2214 ?x2444)) (* ?x2373 (rval2 |v5:6_st|))) ?x2675)))
 (let (($x370 (and (or (<= ?x1377 8.0) (<= ?x2607 17.0)) (and (<= ?x2335 4.0) (<= ?x2399 ?x2214)))))
 (let ((?x683 (- 5.0)))
 (let ((?x2119 (* ?x683 |v0:11|)))
 (let (($x746 (<= (+ (+ (+ (* 18.0 ?x2444) (* 13.0 |v8:3|)) (* 5.0 |v0:11|)) ?x2119) ?x2214)))
 (let ((?x2441 (- 19.0)))
 (let ((?x822 (* ?x2441 |v0:11|)))
 (let ((?x2084 (+ (+ (+ (* ?x2373 (rval2 |v5:6_st|)) (* ?x1575 |v8:3|)) (* 11.0 (rval2 |v5:6_st|))) ?x822)))
 (let ((?x768 (+ (+ (+ (* ?x65 (rval2 |v4:7_st|)) (* (- 15.0) |v3:8|)) (* 10.0 |v2:9|)) (* ?x2441 ?x1369))))
 (let (($x2222 (and (and (or (<= ?x768 16.0) (and (<= ?x2084 ?x2214) $x746)) $x370) (or $x448 $x180))))
 (let ((?x996 (- 9.0)))
 (let ((?x2072 (- 11.0)))
 (let ((?x2733 (* ?x2072 |v0:11|)))
 (let (($x11 (<= (+ (+ (+ (* 2.0 |v1:10|) (* 17.0 ?x2444)) (* ?x559 |v8:3|)) ?x2733) ?x996)))
 (let ((?x1270 (- 16.0)))
 (let ((?x1707 (+ (+ (+ (* 12.0 |v0:11|) (* 20.0 |v0:11|)) (* 10.0 |v11:0|)) (* ?x1270 |v10:1|))))
 (let ((?x2341 (+ (+ (+ (* 7.0 ?x2444) (* (- 13.0) |v10:1|)) (* 13.0 ?x2444)) (* 2.0 ?x2444))))
 (let ((?x2846 (+ (+ (+ (* 9.0 (rval2 |v5:6_st|)) (* ?x2441 |v10:1|)) (* (- 13.0) ?x1369)) (* ?x2172 ?x1369))))
 (let ((?x313 (* 4.0 |v2:9|)))
 (let ((?x2011 (+ (+ (+ (* 0.0 |v10:1|) (* (- 15.0) (rval2 |v4:7_st|))) (* 5.0 |v3:8|)) ?x313)))
 (let ((?x2995 (* 6.0 |v2:9|)))
 (let ((?x3134 (+ (+ (+ (* ?x65 |v3:8|) (* (- 12.0) (rval2 |v4:7_st|))) (* 3.0 |v2:9|)) ?x2995)))
 (let ((?x3074 (* 12.0 |v2:9|)))
 (let (($x20 (<= (+ (+ (+ (* 0.0 ?x2444) (* ?x559 ?x1369)) (* ?x683 ?x2444)) ?x3074) 8.0)))
 (let ((?x1694 (- 1.0)))
 (let ((?x74 (+ (+ (+ (* (- 15.0) |v1:10|) (* 13.0 |v11:0|)) (* 13.0 |v9:2|)) (* ?x1575 (rval2 |v5:6_st|)))))
 (let (($x1259 (and (or (<= ?x74 ?x1694) $x20) (and (<= ?x3134 ?x2373) (<= ?x2011 17.0)))))
 (let (($x1315 (and $x1259 (and (and (<= ?x2846 ?x65) (<= ?x2341 ?x2373)) (and (<= ?x1707 ?x1270) $x11)))))
 (let ((?x3166 (- 12.0)))
 (let ((?x491 (* ?x3166 |v0:11|)))
 (let ((?x2574 (+ (+ (+ (* ?x2172 |v9:2|) (* ?x2373 |v1:10|)) (* 13.0 (rval2 |v5:6_st|))) ?x491)))
 (let ((?x181 (* ?x1575 |v8:3|)))
 (let (($x1849 (<= (+ (+ (+ (* ?x2214 |v2:9|) (* ?x2214 ?x1369)) (* 13.0 |v3:8|)) ?x181) 6.0)))
 (let ((?x980 (* 7.0 |v8:3|)))
 (let (($x2009 (<= (+ (+ (+ (* ?x559 |v8:3|) (* ?x559 |v11:0|)) (* 14.0 |v11:0|)) ?x980) ?x2373)))
 (let ((?x1159 (+ (+ (+ (* 16.0 (rval2 |v4:7_st|)) (* ?x65 |v1:10|)) (* 10.0 |v3:8|)) ?x1156)))
 (let ((?x3046 (+ (+ (+ (* 3.0 (rval2 |v4:7_st|)) (* 7.0 |v0:11|)) (* 13.0 ?x1369)) (* ?x3166 |v10:1|))))
 (let (($x1662 (<= (+ (+ (+ (* ?x559 |v10:1|) ?x1369) (* 0.0 |v9:2|)) (* ?x2172 |v0:11|)) ?x2441)))
 (let ((?x534 (+ (+ (+ (* ?x1575 |v10:1|) (* ?x666 ?x2444)) (* ?x559 (rval2 |v4:7_st|))) (* (- 7.0) |v10:1|))))
 (let ((?x362 (rval2 |v5:6_st|)))
 (let ((?x460 (* ?x2373 ?x362)))
 (let (($x2918 (<= (+ (+ (+ (* 14.0 |v9:2|) (* ?x1270 |v8:3|)) (* ?x2172 ?x362)) ?x460) 11.0)))
 (let (($x3158 (or (or (or $x2918 (<= ?x534 20.0)) (and $x1662 (<= ?x3046 ?x2214))) (or (and (<= ?x1159 14.0) $x2009) (or $x1849 (<= ?x2574 ?x666))))))
 (let ((?x1915 (+ (+ (+ (* 5.0 |v1:10|) (* 0.0 |v1:10|)) (* ?x1270 |v0:11|)) (* 14.0 |v1:10|))))
 (let (($x2066 (<= ?x1915 13.0)))
 (let ((?x3031 (rval2 |v4:7_st|)))
 (let ((?x883 (* ?x1270 ?x3031)))
 (let (($x1362 (<= (+ (+ (+ (* ?x666 |v0:11|) (* 6.0 ?x1369)) (* ?x65 ?x1369)) ?x883) 13.0)))
 (let ((?x3095 (* 6.0 ?x1369)))
 (let (($x2232 (<= (+ (+ (+ (* ?x559 |v2:9|) (* 9.0 |v11:0|)) (* ?x3166 |v2:9|)) ?x3095) ?x2441)))
 (let ((?x2456 (* 11.0 ?x362)))
 (let (($x2053 (<= (+ (+ (+ (* ?x2172 |v3:8|) (* 0.0 |v0:11|)) (* 15.0 |v10:1|)) ?x2456) ?x2441)))
 (let ((?x607 (* ?x1694 |v2:9|)))
 (let (($x1585 (<= (+ (+ (+ (* ?x683 |v8:3|) (* ?x2072 ?x3031)) (* 9.0 |v1:10|)) ?x607) 8.0)))
 (let ((?x1742 (* 14.0 |v11:0|)))
 (let (($x2845 (<= (+ (+ (+ (* 7.0 |v0:11|) (* 12.0 |v11:0|)) (* 19.0 |v3:8|)) ?x1742) ?x2373)))
 (let ((?x2583 (* ?x3166 |v1:10|)))
 (let (($x2070 (<= (+ (+ (+ (* 8.0 ?x1369) (* 6.0 |v9:2|)) (* ?x2441 |v11:0|)) ?x2583) 16.0)))
 (let ((?x2765 (- 7.0)))
 (let ((?x1764 (+ (+ (+ (* 3.0 |v10:1|) (* 8.0 ?x1369)) (* ?x1575 |v0:11|)) (* 8.0 ?x3031))))
 (let (($x1882 (and (or (or (<= ?x1764 ?x2765) $x2070) (and $x2845 $x1585)) (and (or $x2053 $x2232) (and $x1362 $x2066)))))
 (let ((?x3107 (* ?x683 |v8:3|)))
 (let (($x132 (<= (+ (+ (+ (* 14.0 ?x2444) (* ?x666 ?x1369)) (* (- 13.0) |v2:9|)) ?x3107) 4.0)))
 (let ((?x50 (* ?x2172 |v1:10|)))
 (let (($x1027 (<= (+ (+ (+ (* 0.0 |v3:8|) (* ?x2765 |v3:8|)) (* ?x683 ?x1369)) ?x50) 17.0)))
 (let ((?x1303 (- 6.0)))
 (let (($x2417 (<= (+ (+ (+ (* 19.0 ?x362) (* ?x996 ?x3031)) (* ?x2373 ?x2444)) ?x801) ?x2072)))
 (let (($x2120 (and $x2417 (<= (+ (+ (+ ?x883 |v1:10|) (* 13.0 |v0:11|)) (* ?x2373 |v11:0|)) ?x1303))))
 (let ((?x1239 (- 13.0)))
 (let (($x1229 (<= (+ (+ (+ ?x822 (* ?x1239 |v8:3|)) (* 0.0 ?x1369)) (* 8.0 |v11:0|)) ?x1239)))
 (let (($x1330 (and $x1229 (<= (+ (+ (+ ?x801 (* 6.0 ?x362)) (* 2.0 |v9:2|)) |v8:3|) 2.0))))
 (let ((?x510 (- 8.0)))
 (let ((?x2736 (* 13.0 |v9:2|)))
 (let (($x2601 (<= (+ (+ (+ (* ?x3166 ?x362) (* 5.0 ?x2444)) (* 18.0 ?x3031)) ?x2736) ?x510)))
 (let (($x1729 (<= (+ (+ (+ (* ?x666 |v11:0|) (* 10.0 ?x362)) ?x801) (* ?x1303 ?x3031)) 4.0)))
 (let (($x1884 (and (and (and (and $x1729 $x2601) $x1330) (or $x2120 (or $x1027 $x132))) $x1882)))
 (let (($x1098 (<= (+ (+ (+ (* ?x1303 |v3:8|) (* ?x2172 |v3:8|)) ?x2736) (* ?x65 |v3:8|)) 4.0)))
 (let (($x3027 (not (= |v4:7_st| (RMk1 val!3443)))))
 (let (($x820 (not (= |v5:6_st| (RMk1 val!3442)))))
 (let (($x1286 (not (= |v6:5_st| (RMk1 val!3441)))))
 (let (($x2483 (not (= |v7:4_st| (RMk1 val!3440)))))
 (and $x2483 $x1286 $x820 $x3027 (and (and $x1098 $x1884) (and (and $x3158 $x1315) $x2222))))))))))))))))))))))))))))))))))))))))))))))))))))))))))))))))))))))))))))))))))))))))))))))))))))))))))))))))))))
 )
 )
 )
 )
 )
 )
 )
 )
 )
 )
 )
 )
(check-sat)
